set J1:= x3, x2;
set J2:= x1;
set I:= r1, r2;

param b:=
    r1  6
    r2  12;
param c:=
    x1  4
    x2  2
    x3  -3;
param a:
        x1  x2  x3=
    r1  2   3   1
    r2  -4  3  -1;
param alpha :=0;